; benchmark generated from python API
(set-info :status unknown)
(declare-datatypes ((IntState 0)) (((Mk1 (val1 Int)) (Mk2 (val2 Int)))))
 (declare-fun c_main_~j~6 () Int)
(declare-fun c_main_~k~6 () Int)
(declare-fun c_main_~i~6 () Int)
(assert
 (let (($x43 (exists ((v_nnf_78_st IntState) (val!180 Int) )(let ((?x56 (val2 v_nnf_78_st)))
 (let (($x167 (<= ?x56 4)))
 (let (($x54 (and (<= (+ ?x56 2) c_main_~k~6) (<= c_main_~j~6 (+ (* 2 ?x56) 1)) $x167)))
 (let (($x52 (not (= v_nnf_78_st (Mk1 val!180)))))
 (and $x52 $x54))))))
 ))
 (let ((?x93 (* 2 c_main_~i~6)))
 (let (($x163 (<= c_main_~j~6 ?x93)))
 (let (($x58 (<= c_main_~i~6 4)))
 (let (($x88 (<= c_main_~j~6 (+ ?x93 1))))
 (let (($x64 (exists ((v_nnf_78 Int) )(let (($x125 (<= v_nnf_78 4)))
 (and (<= (+ v_nnf_78 2) c_main_~k~6) (<= c_main_~j~6 (+ (* 2 v_nnf_78) 1)) $x125)))
 ))
 (let (($x65 (<= c_main_~i~6 3)))
 (let (($x91 (<= c_main_~i~6 2)))
 (and (and $x91 $x163 $x58 $x65 $x64) (not (and $x88 $x58 $x163 $x43))))))))))))
(check-sat)
